# Data for the NYPD staffing problem (Problem 1 from Homework 3)

param n_Shift := 6;

param Demand := 
1  8
2  7
3 12
4  9
5  6
6 10;

param consec_Cost := 15;
param noncon_Cost := 18;

param Hours_per_Shift := 4;

